\ Generated by MPModelProtoExporter
\   Name             : 
\   Format           : Free
\   Constraints      : 40
\   Variables        : 45
\     Binary         : 0
\     Integer        : 0
\     Continuous     : 45
Maximize
 Obj:
 -1 pftk_2
 -1 pftk_3
 -1 pftk_5
 -1 pftk_6
 -1 pftk_9
 -1 overload1_0 -1 overload2_0
 -1 overload1_1 -1 overload2_1
 -1 overload1_2 -1 overload2_2
 -1 overload1_3 -1 overload2_3
 -1 overload1_4 -1 overload2_4
 -1 overload1_5 -1 overload2_5
 -1 overload1_6 -1 overload2_6
 -1 overload1_7 -1 overload2_7
 -1 overload1_8 -1 overload2_8
 -1 overload1_9 -1 overload2_9
 -1 overload1_10 -1 overload2_10
Subject to
 Slack_angle_zero: +1 theta0  = 0
 Node_power_balance_0: +13.3333 theta0 -5 theta1 -5 theta3 -3.33333 theta4 -1 dGen_down_0  = -0.95578
 Node_power_balance_1: +27.3333 theta1 -4 theta2 -10 theta3 -3.33333 theta4 -5 theta5 -1 dGen_down_1  = 0.5
 Node_power_balance_2: -4 theta1 +17.8462 theta2 -3.84615 theta4 -10 theta5 -1 dGen_up_2  = 0.5
 Node_power_balance_3: -10 theta1 +17.5 theta3 -2.5 theta4 -1 dGen_down_3  = 0
 Node_power_balance_4: -3.33333 theta1 -3.84615 theta2 -2.5 theta3 +16.3462 theta4 -3.33333 theta5 -1 dGen_up_4  = 0
 Node_power_balance_5: -5 theta1 -10 theta2 -3.33333 theta4 +18.3333 theta5 -1 dGen_up_5  = 0

 brach_power_flow_0: +4 theta0 -4 theta1 +1 pftk_0  = 0
 ft_rating_0: +1 pftk_0 -1 overload1_0  <= 1
 tf_rating_0: -1 pftk_0 -1 overload2_0  <= 1

 brach_power_flow_1: +4.70588 theta0 -4.70588 theta3 +1 pftk_1  = 0
 ft_rating_1: +1 pftk_1 -1 overload1_1  <= 1
 tf_rating_1: -1 pftk_1 -1 overload2_1  <= 1

 brach_power_flow_2: +3.11203 theta0 -3.11203 theta4 +1 pftk_2  = 0
 ft_rating_2: +1 pftk_2 -1 overload1_2  <= 1
 tf_rating_2: -1 pftk_2 -1 overload2_2  <= 1

 brach_power_flow_3: +3.84615 theta1 -3.84615 theta2 +1 pftk_3  = 0
 ft_rating_3: +1 pftk_3 -1 overload1_3  <= 0.6
 tf_rating_3: -1 pftk_3 -1 overload2_3  <= 0.6

 brach_power_flow_4: +8 theta1 -8 theta3 +1 pftk_4  = 0
 ft_rating_4: +1 pftk_4 -1 overload1_4  <= 0.6
 tf_rating_4: -1 pftk_4 -1 overload2_4  <= 0.6

 brach_power_flow_5: +3 theta1 -3 theta4 +1 pftk_5  = 0
 ft_rating_5: +1 pftk_5 -1 overload1_5  <= 0.6
 tf_rating_5: -1 pftk_5 -1 overload2_5  <= 0.6

 brach_power_flow_6: +4.45434 theta1 -4.45434 theta5 +1 pftk_6  = 0
 ft_rating_6: +1 pftk_6 -1 overload1_6  <= 0.6
 tf_rating_6: -1 pftk_6 -1 overload2_6  <= 0.6

 brach_power_flow_7: +3.17073 theta2 -3.17073 theta4 +1 pftk_7  = 0
 ft_rating_7: +1 pftk_7 -1 overload1_7  <= 0.6
 tf_rating_7: -1 pftk_7 -1 overload2_7  <= 0.6

 brach_power_flow_8: +9.61538 theta2 -9.61538 theta5 +1 pftk_8  = 0
 ft_rating_8: +1 pftk_8 -1 overload1_8  <= 0.6
 tf_rating_8: -1 pftk_8 -1 overload2_8  <= 0.6

 brach_power_flow_9: +2 theta3 -2 theta4 +1 pftk_9  = 0
 ft_rating_9: +1 pftk_9 -1 overload1_9  <= 0.6
 tf_rating_9: -1 pftk_9 -1 overload2_9  <= 0.6

 brach_power_flow_10: +3 theta4 -3 theta5 +1 pftk_10  = 0
 ft_rating_10: +1 pftk_10 -1 overload1_10  <= 0.6
 tf_rating_10: -1 pftk_10 -1 overload2_10  <= 0.6

Bounds
 -6.28 <= theta0 <= 6.28
 -6.28 <= theta1 <= 6.28
 -6.28 <= theta2 <= 6.28
 -6.28 <= theta3 <= 6.28
 -6.28 <= theta4 <= 6.28
 -6.28 <= theta5 <= 6.28
 0 <= dGen_up_2 <= 0
 0 <= dGen_up_4 <= 1
 0 <= dGen_up_5 <= 1
 0 <= dGen_down_0 <= 0
 0 <= dGen_down_1 <= 0
 0 <= dGen_down_3 <= 0
 -9999 <= pftk_0 <= 9999
 -9999 <= pftk_1 <= 9999
 -9999 <= pftk_2 <= 9999
 -9999 <= pftk_3 <= 9999
 -9999 <= pftk_4 <= 9999
 -9999 <= pftk_5 <= 9999
 -9999 <= pftk_6 <= 9999
 -9999 <= pftk_7 <= 9999
 -9999 <= pftk_8 <= 9999
 -9999 <= pftk_9 <= 9999
 -9999 <= pftk_10 <= 9999
 0 <= overload1_0 <= 9999
 0 <= overload2_0 <= 9999
 0 <= overload1_1 <= 9999
 0 <= overload2_1 <= 9999
 0 <= overload1_2 <= 9999
 0 <= overload2_2 <= 9999
 0 <= overload1_3 <= 9999
 0 <= overload2_3 <= 9999
 0 <= overload1_4 <= 9999
 0 <= overload2_4 <= 9999
 0 <= overload1_5 <= 9999
 0 <= overload2_5 <= 9999
 0 <= overload1_6 <= 9999
 0 <= overload2_6 <= 9999
 0 <= overload1_7 <= 9999
 0 <= overload2_7 <= 9999
 0 <= overload1_8 <= 9999
 0 <= overload2_8 <= 9999
 0 <= overload1_9 <= 9999
 0 <= overload2_9 <= 9999
 0 <= overload1_10 <= 9999
 0 <= overload2_10 <= 9999
End
